Academic license - for non-commercial use only
Optimize a model with 2600 rows, 2400 columns and 213457 nonzeros
Variable types: 0 continuous, 2400 integer (2400 binary)
Coefficient statistics:
  Matrix range     [1e+00, 3e+01]
  Objective range  [1e+00, 4e+01]
  Bounds range     [1e+00, 1e+00]
  RHS range        [1e+00, 1e+02]
Found heuristic solution: objective 316
Presolve removed 782 rows and 636 columns
Presolve time: 0.82s
Presolved: 1818 rows, 1764 columns, 134881 nonzeros
Variable types: 0 continuous, 1764 integer (1764 binary)

Root relaxation: objective 7.367860e+01, 70 iterations, 0.01 seconds

    Nodes    |    Current Node    |     Objective Bounds      |     Work
 Expl Unexpl |  Obj  Depth IntInf | Incumbent    BestBd   Gap | It/Node Time

     0     0   73.67860    0   40  316.00000   73.67860  76.7%     -    0s
H    0     0                     137.0000000   73.67860  46.2%     -    0s
H    0     0                     122.0000000   73.67860  39.6%     -    1s
H    0     0                     108.0000000   73.67860  31.8%     -    1s
     0     0   82.38091    0   45  108.00000   82.38091  23.7%     -    1s
     0     0   83.07595    0   39  108.00000   83.07595  23.1%     -    1s
     0     0   83.10666    0   41  108.00000   83.10666  23.0%     -    1s
     0     0   83.10928    0   42  108.00000   83.10928  23.0%     -    1s
     0     0   90.09375    0   37  108.00000   90.09375  16.6%     -    1s
     0     0   92.07143    0   35  108.00000   92.07143  14.7%     -    1s
     0     0   98.00000    0   16  108.00000   98.00000  9.26%     -    1s
     0     0   98.00000    0   38  108.00000   98.00000  9.26%     -    2s
     0     0   98.00000    0   31  108.00000   98.00000  9.26%     -    2s
     0     0   98.00000    0   41  108.00000   98.00000  9.26%     -    2s
     0     0   98.00000    0   18  108.00000   98.00000  9.26%     -    2s
     0     0  100.68333    0   42  108.00000  100.68333  6.77%     -    2s
     0     0  100.68333    0   35  108.00000  100.68333  6.77%     -    3s
     0     0  100.68333    0   24  108.00000  100.68333  6.77%     -    3s
     0     0  100.68333    0   30  108.00000  100.68333  6.77%     -    3s
     0     0  100.68333    0   20  108.00000  100.68333  6.77%     -    3s
     0     0  101.00000    0   25  108.00000  101.00000  6.48%     -    3s
     0     0  101.00000    0   26  108.00000  101.00000  6.48%     -    3s
     0     0  104.50000    0   41  108.00000  104.50000  3.24%     -    3s
     0     0  104.50000    0   38  108.00000  104.50000  3.24%     -    3s
     0     0  104.50000    0   32  108.00000  104.50000  3.24%     -    3s
     0     0  104.50000    0   38  108.00000  104.50000  3.24%     -    3s
     0     0  104.50000    0   43  108.00000  104.50000  3.24%     -    3s
     0     0  104.75000    0   29  108.00000  104.75000  3.01%     -    3s
     0     0  104.75000    0   28  108.00000  104.75000  3.01%     -    3s
     0     0  105.00000    0   23  108.00000  105.00000  2.78%     -    3s
     0     0  105.00000    0   33  108.00000  105.00000  2.78%     -    4s
     0     0  105.00000    0   31  108.00000  105.00000  2.78%     -    4s
     0     0  105.00000    0   32  108.00000  105.00000  2.78%     -    4s
     0     0  105.00000    0   34  108.00000  105.00000  2.78%     -    4s
     0     0  105.00000    0   11  108.00000  105.00000  2.78%     -    4s
     0     0  106.00000    0    6  108.00000  106.00000  1.85%     -    4s
     0     0  106.33333    0   13  108.00000  106.33333  1.54%     -    4s
     0     0  106.33333    0   29  108.00000  106.33333  1.54%     -    4s
     0     0  106.33333    0   30  108.00000  106.33333  1.54%     -    4s
     0     0  106.33333    0   30  108.00000  106.33333  1.54%     -    4s
     0     0  106.33333    0   22  108.00000  106.33333  1.54%     -    4s
     0     0  106.50000    0   33  108.00000  106.50000  1.39%     -    4s
     0     0  106.50000    0   22  108.00000  106.50000  1.39%     -    4s
*    0     0               0     107.0000000  107.00000  0.00%     -    4s
     0     0          -    0       107.00000  107.00000  0.00%     -    4s

Cutting planes:
  Cover: 1
  Clique: 27

Explored 1 nodes (2654 simplex iterations) in 4.39 seconds
Thread count was 8 (of 8 available processors)

Solution count 5: 107 108 122 ... 316

Optimal solution found (tolerance 1.00e-04)
Best objective 1.070000000000e+02, best bound 1.070000000000e+02, gap 0.0000%

